1 10
2 9
3 10
4 0
5 7
6 2
7 0
8 6
9 3
10 8
11 8
12 11
13 3
14 6
15 10
16 0
17 2
18 2
19 3
20 2
21 2
22 4
23 3
24 11
25 6
26 7
27 8
28 5
29 7
30 5
31 7
32 2
33 11
34 6
35 0
36 4
37 8
38 7
39 9
40 9
41 5
42 7
43 10
44 1
45 1
46 0
47 9
48 5
49 5
50 5
51 0
52 9
53 8
54 9
55 8
56 9
57 3
58 5
59 6
60 0
61 0
62 10
63 0
64 4
65 6
66 5
67 11
68 0
69 10
70 7
71 2
72 5
73 5
74 8
75 7
76 10
77 3
78 3
79 1
80 2
81 7
82 5
83 4
84 3
85 11
86 11
87 10
88 11
89 3
90 10
91 6
92 8
93 11
94 10
95 2
96 7
97 8
98 2
99 3
100 9
101 2
102 11
103 5
104 7
105 6
106 6
107 5
108 6
109 9
110 4
111 11
112 6
113 8
114 1
115 7
116 4
117 8
118 6
119 0
120 11
121 1
122 0
123 6
124 7
125 11
126 11
127 8
128 7
129 8
130 3
131 1
132 11
133 5
134 10
135 10
136 1
137 6
138 3
139 5
140 1
141 5
142 11
143 7
144 0
145 4
146 1
147 5
148 5
149 5
150 7
151 8
152 1
153 2
154 8
155 3
156 3
157 0
158 8
159 2
160 3
161 8
162 6
163 10
164 7
165 0
166 4
167 0
168 2
169 3
170 4
171 1
172 9
173 2
174 9
175 5
176 8
177 4
178 11
179 8
180 6
181 3
182 4
183 1
184 11
185 7
186 11
187 11
188 3
189 7
190 9
191 1
192 4
193 8
194 2
195 4
196 4
197 2
198 9
199 0
200 5
201 9
202 0
203 0
204 4
205 0
206 10
207 3
208 3
209 11
210 7
211 7
212 7
213 5
214 7
215 0
216 11
217 3
218 2
219 9
220 8
221 1
222 8
223 11
224 4
225 0
226 9
227 6
228 4
229 5
230 6
231 8
232 7
233 9
234 3
235 9
236 1
237 2
238 10
239 2
240 4
241 0
242 2
243 9
244 2
245 0
246 6
247 9
248 4
249 3
250 11
251 6
252 3
253 10
254 2
255 10
256 3
257 10
258 5
259 9
260 8
261 0
262 5
263 7
264 7
265 11
266 5
267 7
268 0
269 7
270 2
271 10
272 4
273 6
274 0
275 1
276 1
277 4
278 6
279 10
280 3
281 3
282 6
283 7
284 0
285 11
286 11
287 8
288 3
289 5
290 11
291 8
292 8
293 1
294 8
295 10
296 7
297 1
298 4
299 1
300 5
301 6
302 8
303 2
304 2
305 10
306 4
307 9
308 5
309 7
310 8
311 1
312 4
313 4
314 9
315 7
316 3
317 3
318 2
319 0
320 2
321 11
322 6
323 8
324 0
325 11
326 10
327 11
328 6
329 2
330 10
331 7
332 11
333 2
334 6
335 2
336 9
337 10
338 9
339 10
340 4
341 4
342 1
343 9
344 6
345 10
346 9
347 8
348 6
349 4
350 2
351 9
352 6
353 11
354 0
355 9
356 2
357 9
358 1
359 7
360 5
361 8
362 6
363 3
364 5
365 6
366 2
367 0
368 10
369 1
370 0
371 11
372 3
373 5
374 10
375 10
376 11
377 7
378 10
379 2
380 11
381 6
382 4
383 10
384 1
385 1
386 7
387 2
388 1
389 0
390 0
391 5
392 2
393 1
394 6
395 8
396 3
397 6
398 0
399 4
400 1
401 4
402 7
403 2
404 2
405 11
406 0
407 4
408 1
409 0
410 6
411 10
412 9
413 7
414 8
415 0
416 1
417 8
418 7
419 10
420 9
421 1
422 1
423 8
424 2
425 1
426 7
427 5
428 5
429 4
430 5
431 3
432 11
433 3
434 8
435 5
436 4
437 9
438 4
439 4
440 6
441 11
442 6
443 10
444 8
445 0
446 0
447 1
448 0
449 10
450 2
451 6
452 3
453 1
454 11
455 5
456 0
457 1
458 5
459 8
460 0
461 8
462 10
463 6
464 5
465 9
466 2
467 0
468 8
469 6
470 9
471 8
472 1
473 9
474 5
475 4
476 0
477 2
478 1
479 6
480 0
481 0
482 0
483 9
484 0
485 1
486 11
487 5
488 0
489 3
490 4
491 9
492 2
493 2
494 1
495 0
496 10
497 5
498 6
499 10
500 9
